&inputpp
  outdir     =  './'
  prefix     =  'si'
  seedname   =  'si'
  spin_component = 'none'
  write_amn  =  .true.
  write_mmn  =  .true.
  write_unkg     = .false.
% if write_unk:
  write_unk  = .true.
% endif
  wvfn_formatted = .true.
% if scdm:
  scdm_proj         = true
  scdm_entanglement = 'isolated'
% endif
/
