Silicon
 &control
    calculation     =  'scf'
    restart_mode    =  'from_scratch'
    prefix          =  'si'
    tprnfor         =  .true.
    outdir          =  '.'
    pseudo_dir      =  './pseudo'
    iprint          =  2
/
 &system
    ibrav           =   2
% if celldm is UNDEFINED:
    celldm(1)       =   10.2630
% else:
    celldm(1)       =   ${celldm}
% endif
    nat             =   2
    ntyp            =   1
    ecutwfc         =   ${ecutwfc}
/
 &electrons
    conv_thr        =   1.0d-8
    diagonalization =  'cg'
    mixing_mode     =  'plain'
    mixing_beta     =  0.7
/

ATOMIC_SPECIES
% if pseudo is UNDEFINED:
Si  28.0855  Si_HSCV_PBE-1.0.UPF
% else:
Si  28.0855  ${pseudo}
% endif

ATOMIC_POSITIONS {crystal}
Si  -0.25   0.75   -0.25
Si   0.00   0.00    0.00
K_POINTS {automatic}
10 10 10 0 0 0
