% if exclude:
exclude_bands    =  1-${nbnd_start}
% endif
num_bands        =  ${nbnd-nbnd_start}
num_wann         =  ${nbnd-nbnd_start}
length_unit      =  bohr
num_iter         =  ${num_iter}
iprint           =  2

% if scdm:
auto_projections = .true.
%else:
begin projections
random
end projections
% endif

begin unit_cell_cart
 bohr
-5.1315 0.00   5.1315
 0.00   5.1315 5.1315
-5.1315 5.1315 0.00
end unit_cell_cart

begin atoms_frac
Si -0.25  0.75  -0.25
Si  0.00  0.00   0.00
end atoms_frac

mp_grid  =  4 4 4

write_xyz = true
translate_home_cell = true
write_u_matrices = true

begin kpoints
  0.00000000  0.00000000  0.00000000
  0.00000000  0.00000000  0.25000000
  0.00000000  0.00000000  0.50000000
  0.00000000  0.00000000  0.75000000
  0.00000000  0.25000000  0.00000000
  0.00000000  0.25000000  0.25000000
  0.00000000  0.25000000  0.50000000
  0.00000000  0.25000000  0.75000000
  0.00000000  0.50000000  0.00000000
  0.00000000  0.50000000  0.25000000
  0.00000000  0.50000000  0.50000000
  0.00000000  0.50000000  0.75000000
  0.00000000  0.75000000  0.00000000
  0.00000000  0.75000000  0.25000000
  0.00000000  0.75000000  0.50000000
  0.00000000  0.75000000  0.75000000
  0.25000000  0.00000000  0.00000000
  0.25000000  0.00000000  0.25000000
  0.25000000  0.00000000  0.50000000
  0.25000000  0.00000000  0.75000000
  0.25000000  0.25000000  0.00000000
  0.25000000  0.25000000  0.25000000
  0.25000000  0.25000000  0.50000000
  0.25000000  0.25000000  0.75000000
  0.25000000  0.50000000  0.00000000
  0.25000000  0.50000000  0.25000000
  0.25000000  0.50000000  0.50000000
  0.25000000  0.50000000  0.75000000
  0.25000000  0.75000000  0.00000000
  0.25000000  0.75000000  0.25000000
  0.25000000  0.75000000  0.50000000
  0.25000000  0.75000000  0.75000000
  0.50000000  0.00000000  0.00000000
  0.50000000  0.00000000  0.25000000
  0.50000000  0.00000000  0.50000000
  0.50000000  0.00000000  0.75000000
  0.50000000  0.25000000  0.00000000
  0.50000000  0.25000000  0.25000000
  0.50000000  0.25000000  0.50000000
  0.50000000  0.25000000  0.75000000
  0.50000000  0.50000000  0.00000000
  0.50000000  0.50000000  0.25000000
  0.50000000  0.50000000  0.50000000
  0.50000000  0.50000000  0.75000000
  0.50000000  0.75000000  0.00000000
  0.50000000  0.75000000  0.25000000
  0.50000000  0.75000000  0.50000000
  0.50000000  0.75000000  0.75000000
  0.75000000  0.00000000  0.00000000
  0.75000000  0.00000000  0.25000000
  0.75000000  0.00000000  0.50000000
  0.75000000  0.00000000  0.75000000
  0.75000000  0.25000000  0.00000000
  0.75000000  0.25000000  0.25000000
  0.75000000  0.25000000  0.50000000
  0.75000000  0.25000000  0.75000000
  0.75000000  0.50000000  0.00000000
  0.75000000  0.50000000  0.25000000
  0.75000000  0.50000000  0.50000000
  0.75000000  0.50000000  0.75000000
  0.75000000  0.75000000  0.00000000
  0.75000000  0.75000000  0.25000000
  0.75000000  0.75000000  0.50000000
  0.75000000  0.75000000  0.75000000
end kpoints
